VER
4

OBJSENSE
MIN

QCECONES
1 2
2
2 2
0

VAR
18 2
@0:HVECQCE 17
L+ 1

CON
5 1
L= 5

OBJACOORD
1
0 1.0

ACOORD
24
0 1 1.0
0 4 1.0
1 5 1.0
1 12 1.0
2 6 1.0
2 13 1.0
3 9 1.0
3 16 1.0
4 1 0.5688147791594145
4 2 0.08924690901733938
4 3 -0.43181769619451454
4 4 0.7745382678737833
4 5 0.08924690901733938
4 6 -0.43181769619451454
4 7 -0.3188510393690253
4 9 0.7745382678737833
4 10 0.2927271702989786
4 11 0.12639932387263988
4 12 0.04666616971410406
4 13 -0.22579244612551835
4 14 0.04666616971410406
4 15 -0.22579244612551835
4 16 0.8821086850930184
4 17 1.0

BCOORD
4
0 0.6566469529668019
1 -0.13591307873144343
2 0.6576101423200328
3 0.34335304703319824
